c instance by G2
c solution = 00010001001010011110001
c Known solution cost is 932 
p cnf 23 30
w 28 86 36 32 95 17 18 83 62 6 18 46 65 13 18 30 70 11 96 9 80 11 2
-12 15 -19 0
14 -13 -9 0
-1 -13 -10 0
1 -7 -8 0
4 5 7 0
-2 1 -6 0
-23 21 -15 0
2 7 -1 0
-4 19 10 0
8 -13 7 0
14 23 20 0
3 -10 -13 0
5 -23 -6 0
3 -20 -4 0
-16 9 -22 0
10 -14 15 0
-21 6 -18 0
-23 -2 5 0
-18 17 -8 0
13 -8 9 0
16 -19 20 0
-17 -13 11 0
13 -19 5 0
-13 -3 7 0
14 -6 -13 0
-5 22 2 0
-16 3 18 0
13 15 7 0
21 17 -19 0
-5 -8 22 0
